(set-logic QF_S)
(declare-fun var0 () String)
(assert (str.in.re var0 (re.++ (re.union (re.* (str.to.re "000")) (re.* (str.to.re "1"))) (re.++ (re.* (re.union (str.to.re "22") (str.to.re "333"))) (re.++ (re.* (re.* (str.to.re "444"))) (re.++ (re.union (re.union (str.to.re "55") (str.to.re "66")) (re.union (str.to.re "7") (str.to.re "8"))) (re.++ (re.union (re.+ (str.to.re "99")) (re.+ (str.to.re "aaa"))) (re.++ (re.+ (re.union (str.to.re "b") (str.to.re "cc"))) (re.++ (re.union (re.union (str.to.re "ddd") (str.to.re "e")) (re.union (str.to.re "f") (str.to.re "gg"))) (re.++ (re.union (re.union (str.to.re "hhh") (str.to.re "i")) (re.union (str.to.re "jj") (str.to.re "kkk"))) (re.++ (re.+ (re.union (str.to.re "ll") (str.to.re "m"))) (re.++ (re.union (re.union (str.to.re "n") (str.to.re "ooo")) (re.union (str.to.re "ppp") (str.to.re "qqq"))) (re.++ (re.union (re.* (str.to.re "rr")) (re.* (str.to.re "ss"))) (re.++ (re.+ (re.+ (str.to.re "ttt"))) (re.++ (re.* (re.+ (str.to.re "u"))) (re.++ (re.+ (re.+ (str.to.re "vv"))) (re.++ (re.+ (re.union (str.to.re "w") (str.to.re "xxx"))) (re.++ (re.union (re.* (str.to.re "y")) (re.* (str.to.re "zzz"))) (re.++ (re.union (re.* (str.to.re "AAA")) (re.* (str.to.re "B"))) (re.++ (re.+ (re.+ (str.to.re "CC"))) (re.++ (re.union (re.+ (str.to.re "DD")) (re.+ (str.to.re "EE"))) (re.++ (re.+ (re.union (str.to.re "FFF") (str.to.re "GGG"))) (re.++ (re.union (re.+ (str.to.re "H")) (re.+ (str.to.re "I"))) (re.++ (re.union (re.* (str.to.re "J")) (re.* (str.to.re "K"))) (re.++ (re.union (re.+ (str.to.re "L")) (re.+ (str.to.re "MM"))) (re.++ (re.* (re.* (str.to.re "N"))) (re.++ (re.+ (re.union (str.to.re "OOO") (str.to.re "PP"))) (re.++ (re.* (re.union (str.to.re "Q") (str.to.re "RR"))) (re.++ (re.+ (re.+ (str.to.re "SS"))) (re.++ (re.* (re.union (str.to.re "TTT") (str.to.re "U"))) (re.++ (re.+ (re.+ (str.to.re "V"))) (re.++ (re.union (re.+ (str.to.re "W")) (re.+ (str.to.re "X"))) (re.++ (re.union (re.* (str.to.re "YY")) (re.* (str.to.re "ZZZ"))) (re.++ (re.+ (re.+ (str.to.re "!!!"))) (re.++ (re.* (re.* (str.to.re """"""""))) (re.++ (re.* (re.union (str.to.re "##") (str.to.re "$$"))) (re.++ (re.+ (re.* (str.to.re "%%%"))) (re.++ (re.+ (re.* (str.to.re "&&"))) (re.++ (re.union (re.+ (str.to.re "'")) (re.+ (str.to.re "("))) (re.++ (re.* (re.+ (str.to.re ")))"))) (re.++ (re.union (re.+ (str.to.re "*")) (re.+ (str.to.re "++"))) (re.++ (re.+ (re.* (str.to.re ",,,"))) (re.++ (re.+ (re.union (str.to.re "---") (str.to.re ".."))) (re.++ (re.union (re.+ (str.to.re "/")) (re.+ (str.to.re ":::"))) (re.++ (re.union (re.+ (str.to.re ";;;")) (re.+ (str.to.re "<<<"))) (re.++ (re.* (re.+ (str.to.re "="))) (re.++ (re.+ (re.* (str.to.re ">"))) (re.++ (re.union (re.+ (str.to.re "???")) (re.+ (str.to.re "@@"))) (re.++ (re.* (re.union (str.to.re "[[[") (str.to.re "\\\\\\"))) (re.++ (re.+ (re.union (str.to.re "]]") (str.to.re "^"))) (re.union (re.* (str.to.re "_")) (re.* (str.to.re "```")))))))))))))))))))))))))))))))))))))))))))))))))))))
(check-sat)